PARAMETER_FILE = even/LKH_uncomplete_graph/x10/de/par/random101.par
PROBLEM_FILE = even/LKH_uncomplete_graph/x10/de/mat/random101.tsp
Successes/Runs = 0/10
Cost.min = 736, Cost.avg = 736.00, Cost.max = 736
Gap.min = 0.0000%, Gap.avg = 0.0000%, Gap.max = 0.0000%
Trials.min = 1000, Trials.avg = 1000.0, Trials.max = 1000
Time.min = 0.28 sec., Time.avg = 0.49 sec., Time.max = 0.73 sec.
Time.total = 4.97 sec.
请按任意键继续. . . 
